c t mc
c file mc2022_track1_034.cnf
p cnf 39 256
1 14 27 7 20 33 0
-1 14 27 -7 20 33 0
1 -14 27 7 -20 33 0
-1 -14 27 -7 -20 33 0
1 14 -27 7 20 -33 0
-1 14 -27 -7 20 -33 0
1 -14 -27 7 -20 -33 0
-1 -14 -27 -7 -20 -33 0
1 14 27 6 19 32 0
-1 14 27 -6 19 32 0
1 -14 27 6 -19 32 0
-1 -14 27 -6 -19 32 0
1 14 -27 6 19 -32 0
-1 14 -27 -6 19 -32 0
1 -14 -27 6 -19 -32 0
-1 -14 -27 -6 -19 -32 0
1 14 27 5 18 31 0
-1 14 27 -5 18 31 0
1 -14 27 5 -18 31 0
-1 -14 27 -5 -18 31 0
1 14 -27 5 18 -31 0
-1 14 -27 -5 18 -31 0
1 -14 -27 5 -18 -31 0
-1 -14 -27 -5 -18 -31 0
1 14 27 6 19 32 0
-1 14 27 -6 19 32 0
1 -14 27 6 -19 32 0
-1 -14 27 -6 -19 32 0
1 14 -27 6 19 -32 0
-1 14 -27 -6 19 -32 0
1 -14 -27 6 -19 -32 0
-1 -14 -27 -6 -19 -32 0
1 14 27 6 19 32 0
-1 14 27 -6 19 32 0
1 -14 27 6 -19 32 0
-1 -14 27 -6 -19 32 0
1 14 -27 6 19 -32 0
-1 14 -27 -6 19 -32 0
1 -14 -27 6 -19 -32 0
-1 -14 -27 -6 -19 -32 0
2 15 28 8 21 34 0
-2 15 28 -8 21 34 0
2 -15 28 8 -21 34 0
-2 -15 28 -8 -21 34 0
2 15 -28 8 21 -34 0
-2 15 -28 -8 21 -34 0
2 -15 -28 8 -21 -34 0
-2 -15 -28 -8 -21 -34 0
2 15 28 7 20 33 0
-2 15 28 -7 20 33 0
2 -15 28 7 -20 33 0
-2 -15 28 -7 -20 33 0
2 15 -28 7 20 -33 0
-2 15 -28 -7 20 -33 0
2 -15 -28 7 -20 -33 0
-2 -15 -28 -7 -20 -33 0
2 15 28 8 21 34 0
-2 15 28 -8 21 34 0
2 -15 28 8 -21 34 0
-2 -15 28 -8 -21 34 0
2 15 -28 8 21 -34 0
-2 15 -28 -8 21 -34 0
2 -15 -28 8 -21 -34 0
-2 -15 -28 -8 -21 -34 0
2 15 28 3 16 29 0
-2 15 28 -3 16 29 0
2 -15 28 3 -16 29 0
-2 -15 28 -3 -16 29 0
2 15 -28 3 16 -29 0
-2 15 -28 -3 16 -29 0
2 -15 -28 3 -16 -29 0
-2 -15 -28 -3 -16 -29 0
2 15 28 3 16 29 0
-2 15 28 -3 16 29 0
2 -15 28 3 -16 29 0
-2 -15 28 -3 -16 29 0
2 15 -28 3 16 -29 0
-2 15 -28 -3 16 -29 0
2 -15 -28 3 -16 -29 0
-2 -15 -28 -3 -16 -29 0
3 16 29 7 20 33 0
-3 16 29 -7 20 33 0
3 -16 29 7 -20 33 0
-3 -16 29 -7 -20 33 0
3 16 -29 7 20 -33 0
-3 16 -29 -7 20 -33 0
3 -16 -29 7 -20 -33 0
-3 -16 -29 -7 -20 -33 0
3 16 29 5 18 31 0
-3 16 29 -5 18 31 0
3 -16 29 5 -18 31 0
-3 -16 29 -5 -18 31 0
3 16 -29 5 18 -31 0
-3 16 -29 -5 18 -31 0
3 -16 -29 5 -18 -31 0
-3 -16 -29 -5 -18 -31 0
3 16 29 9 22 35 0
-3 16 29 -9 22 35 0
3 -16 29 9 -22 35 0
-3 -16 29 -9 -22 35 0
3 16 -29 9 22 -35 0
-3 16 -29 -9 22 -35 0
3 -16 -29 9 -22 -35 0
-3 -16 -29 -9 -22 -35 0
4 17 30 11 24 37 0
-4 17 30 -11 24 37 0
4 -17 30 11 -24 37 0
-4 -17 30 -11 -24 37 0
4 17 -30 11 24 -37 0
-4 17 -30 -11 24 -37 0
4 -17 -30 11 -24 -37 0
-4 -17 -30 -11 -24 -37 0
4 17 30 11 24 37 0
-4 17 30 -11 24 37 0
4 -17 30 11 -24 37 0
-4 -17 30 -11 -24 37 0
4 17 -30 11 24 -37 0
-4 17 -30 -11 24 -37 0
4 -17 -30 11 -24 -37 0
-4 -17 -30 -11 -24 -37 0
4 17 30 10 23 36 0
-4 17 30 -10 23 36 0
4 -17 30 10 -23 36 0
-4 -17 30 -10 -23 36 0
4 17 -30 10 23 -36 0
-4 17 -30 -10 23 -36 0
4 -17 -30 10 -23 -36 0
-4 -17 -30 -10 -23 -36 0
4 17 30 8 21 34 0
-4 17 30 -8 21 34 0
4 -17 30 8 -21 34 0
-4 -17 30 -8 -21 34 0
4 17 -30 8 21 -34 0
-4 17 -30 -8 21 -34 0
4 -17 -30 8 -21 -34 0
-4 -17 -30 -8 -21 -34 0
4 17 30 7 20 33 0
-4 17 30 -7 20 33 0
4 -17 30 7 -20 33 0
-4 -17 30 -7 -20 33 0
4 17 -30 7 20 -33 0
-4 17 -30 -7 20 -33 0
4 -17 -30 7 -20 -33 0
-4 -17 -30 -7 -20 -33 0
5 18 31 9 22 35 0
-5 18 31 -9 22 35 0
5 -18 31 9 -22 35 0
-5 -18 31 -9 -22 35 0
5 18 -31 9 22 -35 0
-5 18 -31 -9 22 -35 0
5 -18 -31 9 -22 -35 0
-5 -18 -31 -9 -22 -35 0
5 18 31 8 21 34 0
-5 18 31 -8 21 34 0
5 -18 31 8 -21 34 0
-5 -18 31 -8 -21 34 0
5 18 -31 8 21 -34 0
-5 18 -31 -8 21 -34 0
5 -18 -31 8 -21 -34 0
-5 -18 -31 -8 -21 -34 0
5 18 31 12 25 38 0
-5 18 31 -12 25 38 0
5 -18 31 12 -25 38 0
-5 -18 31 -12 -25 38 0
5 18 -31 12 25 -38 0
-5 18 -31 -12 25 -38 0
5 -18 -31 12 -25 -38 0
-5 -18 -31 -12 -25 -38 0
6 19 32 13 26 39 0
-6 19 32 -13 26 39 0
6 -19 32 13 -26 39 0
-6 -19 32 -13 -26 39 0
6 19 -32 13 26 -39 0
-6 19 -32 -13 26 -39 0
6 -19 -32 13 -26 -39 0
-6 -19 -32 -13 -26 -39 0
6 19 32 12 25 38 0
-6 19 32 -12 25 38 0
6 -19 32 12 -25 38 0
-6 -19 32 -12 -25 38 0
6 19 -32 12 25 -38 0
-6 19 -32 -12 25 -38 0
6 -19 -32 12 -25 -38 0
-6 -19 -32 -12 -25 -38 0
7 20 33 13 26 39 0
-7 20 33 -13 26 39 0
7 -20 33 13 -26 39 0
-7 -20 33 -13 -26 39 0
7 20 -33 13 26 -39 0
-7 20 -33 -13 26 -39 0
7 -20 -33 13 -26 -39 0
-7 -20 -33 -13 -26 -39 0
8 21 34 11 24 37 0
-8 21 34 -11 24 37 0
8 -21 34 11 -24 37 0
-8 -21 34 -11 -24 37 0
8 21 -34 11 24 -37 0
-8 21 -34 -11 24 -37 0
8 -21 -34 11 -24 -37 0
-8 -21 -34 -11 -24 -37 0
9 22 35 11 24 37 0
-9 22 35 -11 24 37 0
9 -22 35 11 -24 37 0
-9 -22 35 -11 -24 37 0
9 22 -35 11 24 -37 0
-9 22 -35 -11 24 -37 0
9 -22 -35 11 -24 -37 0
-9 -22 -35 -11 -24 -37 0
9 22 35 11 24 37 0
-9 22 35 -11 24 37 0
9 -22 35 11 -24 37 0
-9 -22 35 -11 -24 37 0
9 22 -35 11 24 -37 0
-9 22 -35 -11 24 -37 0
9 -22 -35 11 -24 -37 0
-9 -22 -35 -11 -24 -37 0
9 22 35 12 25 38 0
-9 22 35 -12 25 38 0
9 -22 35 12 -25 38 0
-9 -22 35 -12 -25 38 0
9 22 -35 12 25 -38 0
-9 22 -35 -12 25 -38 0
9 -22 -35 12 -25 -38 0
-9 -22 -35 -12 -25 -38 0
10 23 36 13 26 39 0
-10 23 36 -13 26 39 0
10 -23 36 13 -26 39 0
-10 -23 36 -13 -26 39 0
10 23 -36 13 26 -39 0
-10 23 -36 -13 26 -39 0
10 -23 -36 13 -26 -39 0
-10 -23 -36 -13 -26 -39 0
10 23 36 13 26 39 0
-10 23 36 -13 26 39 0
10 -23 36 13 -26 39 0
-10 -23 36 -13 -26 39 0
10 23 -36 13 26 -39 0
-10 23 -36 -13 26 -39 0
10 -23 -36 13 -26 -39 0
-10 -23 -36 -13 -26 -39 0
10 23 36 12 25 38 0
-10 23 36 -12 25 38 0
10 -23 36 12 -25 38 0
-10 -23 36 -12 -25 38 0
10 23 -36 12 25 -38 0
-10 23 -36 -12 25 -38 0
10 -23 -36 12 -25 -38 0
-10 -23 -36 -12 -25 -38 0
12 25 38 13 26 39 0
-12 25 38 -13 26 39 0
12 -25 38 13 -26 39 0
-12 -25 38 -13 -26 39 0
12 25 -38 13 26 -39 0
-12 25 -38 -13 26 -39 0
12 -25 -38 13 -26 -39 0
-12 -25 -38 -13 -26 -39 0
